(declare-const x String)
(declare-const y String)
(assert (str.in.re x (re.+ (re.union (re.* (str.to.re "")) (str.to.re "")))))
(assert (= (str.len x) 6))
(assert (not (= x "5b~(")))
(assert (not (= x "Pnf'\x0b'eh' ''\t'^")))
(assert (not (= x "RH_=YI*E?6b('\r'Nc#&l'Ry%vL)/0P\\jm=m&N9NsF")))
(check-sat)
(get-model)
